Route #1: 1 38 4 18 35 34 15 5 37 1
Route #2: 1 26 42 30 19 49 51 45 1
Route #3: 1 31 23 28 20 14 29 55 1
Route #4: 1 39 40 50 10 36 1
Route #5: 1 24 25 53 2 7 44 48 17 41 1
Route #6: 1 21 47 27 43 32 8 1
Route #7: 1 52 3 12 16 54 1
Route #8: 1 9 22 13 11 33 6 1
Route #9: 1 46 1
cost 1273
